p cnf 41 243
1 -29 0 
29 -1 14 15 16 18 22 23 25 26 27 28 0 
1 -28 2 3 4 5 6 7 8 0 
1 -27 2 3 4 5 6 7 8 0 
1 -26 2 3 4 5 6 7 8 0 
1 -25 3 0 
1 -18 2 3 4 5 6 7 8 0 
1 -16 2 3 4 5 6 7 8 0 
1 -15 2 3 4 5 6 7 8 0 
1 -14 2 3 4 5 6 7 8 0 
24 -8 14 15 16 17 18 19 20 21 22 23 27 26 28 0 
8 -21 2 5 6 7 4 0 
24 -7 14 15 16 17 18 19 20 21 22 23 27 26 28 0 
24 -6 14 15 16 17 18 19 20 21 22 23 27 26 28 0 
10 -13 9 0 
10 -12 9 0 
10 -11 9 0 
24 -4 14 15 16 17 18 19 20 21 22 23 27 26 28 0 
28 -3 14 15 16 17 18 19 20 22 23 24 25 26 27 0 
3 -24 5 6 7 4 8 2 0 
3 -20 5 6 7 4 8 2 0 
3 -19 5 6 7 4 8 2 0 
3 -17 5 6 7 4 8 2 0 
24 -2 14 15 16 17 18 19 20 21 22 23 27 26 28 0 
2 -23 3 4 5 6 7 8 0 
2 -22 3 4 5 6 7 8 0 
-2 -3 0 
-2 -4 0 
-2 -5 0 
-2 -6 0 
-2 -7 0 
-3 -4 0 
-2 -8 0 
-2 -9 0 
-3 -5 0 
-2 -10 0 
-2 -11 0 
-3 -6 0 
-2 -12 0 
-2 -13 0 
-3 -7 0 
-4 -5 0 
-3 -8 0 
-4 -6 0 
-3 -9 0 
-3 -10 0 
-4 -7 0 
-3 -11 0 
-5 -6 0 
-4 -8 0 
-3 -12 0 
-2 -25 0 
-3 -13 0 
-4 -9 0 
-5 -7 0 
-2 -28 0 
-4 -10 0 
-2 -29 0 
-5 -8 0 
-4 -11 0 
-6 -7 0 
-17 -3 0 
-5 -9 0 
-4 -12 0 
-6 -8 0 
-4 -13 0 
-5 -10 0 
-21 -3 0 
-5 -11 0 
-6 -9 0 
-2 -1 0 
1 2 3 4 5 6 7 8 9 10 0 
-7 -8 0 
-5 -12 0 
-6 -10 0 
-5 -13 0 
-7 -9 0 
-6 -11 0 
-7 -10 0 
-6 -12 0 
-3 -29 0 
-8 -9 0 
-6 -13 0 
-7 -11 0 
-8 -10 0 
-7 -12 0 
-8 -11 0 
-4 -25 0 
-7 -13 0 
-9 -10 0 
-8 -12 0 
-4 -28 0 
-3 -1 0 
1 3 -28 0 
-4 -29 0 
-8 -13 0 
-5 -25 0 
-9 -14 0 
-5 -28 0 
-11 -12 0 
-5 -29 0 
-15 -9 0 
-10 -14 0 
-6 -25 0 
-9 -16 0 
-11 -13 0 
-4 -1 0 
-15 -10 0 
-9 -17 0 
-11 -14 0 
-12 -13 0 
-6 -28 0 
-10 -16 0 
-18 -9 0 
-6 -29 0 
-11 -15 0 
-12 -14 0 
-7 -25 0 
-9 -19 0 
-10 -17 0 
-11 -16 0 
-9 -20 0 
-18 -10 0 
-12 -15 0 
-13 -14 0 
-9 -21 0 
-11 -17 0 
-7 -28 0 
-10 -19 0 
-5 -1 0 
-12 -16 0 
-7 -29 0 
-8 -25 0 
-9 -22 0 
-13 -15 0 
-11 -18 0 
-10 -20 0 
-23 -9 0 
-12 -17 0 
-10 -21 0 
-11 -19 0 
-13 -16 0 
-9 -24 0 
-12 -18 0 
-8 -28 0 
-10 -22 0 
-11 -20 0 
-9 -25 0 
-13 -17 0 
-14 -16 0 
-8 -29 0 
-23 -10 0 
-12 -19 0 
-9 -26 0 
-11 -21 0 
-13 -18 0 
-6 -1 0 
-10 -24 0 
-9 -27 0 
-12 -20 0 
-11 -22 0 
-15 -16 0 
-9 -28 0 
-10 -25 0 
-13 -19 0 
-11 -23 0 
-12 -21 0 
-9 -29 0 
-10 -26 0 
-13 -20 0 
-11 -24 0 
-12 -22 0 
-10 -27 0 
-11 -25 0 
-13 -21 0 
-12 -23 0 
-10 -28 0 
-7 -1 0 
-11 -26 0 
-10 -29 0 
-13 -22 0 
-12 -24 0 
-16 -18 0 
-11 -27 0 
-12 -25 0 
-13 -23 0 
-11 -28 0 
-12 -26 0 
-13 -24 0 
-12 -27 0 
-8 -1 0 
-13 -25 0 
-12 -28 0 
-13 -26 0 
-13 -27 0 
-13 -28 0 
-9 -1 0 
-19 -20 0 
-10 -1 0 
-17 -25 0 
-11 -1 0 
-28 -17 0 
-25 -19 0 
-17 -29 0 
-12 -1 0 
-25 -20 0 
-13 -1 0 
-25 -24 0 
-25 -26 0 
-25 -27 0 
-25 -28 0 
-17 -1 0 
-1 -19 0 
-1 -20 0 
-21 -1 0 
30 31 32 33 34 35 36 37 38 39 40 41 9 10 0 
-31 -32 0 
-1 -24 0 
-30 -34 0 
-31 -34 0 
-33 -32 0 
-31 -35 0 
-34 -32 0 
-31 -37 0 
-34 -35 0 
-39 -31 0 
-30 -41 0 
-40 -31 0 
-31 -41 0 
-40 -32 0 
-41 -32 0 
-39 -34 0 
-36 -37 0 
-33 -41 0 
-34 -40 0 
-34 -41 0 
-35 -41 0 
-36 -41 0 
-37 -41 0 
-38 -41 0 
-39 -40 0 
-39 -41 0 
-40 -41 0 
c p weight 1 0.517277 0
c p weight -1 0.482723 0
c p weight 2 0.565851 0
c p weight -2 0.434149 0
c p weight 3 0.545867 0
c p weight -3 0.454133 0
c p weight 4 0.543604 0
c p weight -4 0.456396 0
c p weight 5 0.461266 0
c p weight -5 0.538734 0
c p weight 6 0.595039 0
c p weight -6 0.404961 0
c p weight 7 0.521157 0
c p weight -7 0.478843 0
c p weight 8 0.539446 0
c p weight -8 0.460554 0
c p weight 9 0.46531 0
c p weight -9 0.534690 0
c p weight 10 0.494144 0
c p weight -10 0.505856 0
c p weight 11 0.467209 0
c p weight -11 0.532791 0
c p weight 12 0.559752 0
c p weight -12 0.440248 0
c p weight 13 0.523315 0
c p weight -13 0.476685 0
c p weight 14 0.469282 0
c p weight -14 0.530718 0
c p weight 15 0.453269 0
c p weight -15 0.546731 0
c p weight 16 0.507759 0
c p weight -16 0.492241 0
c p weight 17 0.513977 0
c p weight -17 0.486023 0
c p weight 18 0.510901 0
c p weight -18 0.489099 0
c p weight 19 0.519415 0
c p weight -19 0.480585 0
c p weight 20 0.518998 0
c p weight -20 0.481002 0
c p weight 21 0.567002 0
c p weight -21 0.432998 0
c p weight 22 0.497061 0
c p weight -22 0.502939 0
c p weight 23 0.446747 0
c p weight -23 0.553253 0
c p weight 24 0.447678 0
c p weight -24 0.552322 0
c p weight 25 0.557381 0
c p weight -25 0.442619 0
c p weight 26 0.511707 0
c p weight -26 0.488293 0
c p weight 27 0.497965 0
c p weight -27 0.502035 0
c p weight 28 0.427896 0
c p weight -28 0.572104 0
c p weight 29 0.390106 0
c p weight -29 0.609894 0
c p weight 30 0.526291 0
c p weight -30 0.473709 0
c p weight 31 0.450309 0
c p weight -31 0.549691 0
c p weight 32 0.573609 0
c p weight -32 0.426391 0
c p weight 33 0.423874 0
c p weight -33 0.576126 0
c p weight 34 0.477453 0
c p weight -34 0.522547 0
c p weight 35 0.512764 0
c p weight -35 0.487236 0
c p weight 36 0.430577 0
c p weight -36 0.569423 0
c p weight 37 0.52831 0
c p weight -37 0.471690 0
c p weight 38 0.545965 0
c p weight -38 0.454035 0
c p weight 39 0.434581 0
c p weight -39 0.565419 0
c p weight 40 0.477751 0
c p weight -40 0.522249 0
c p weight 41 0.532174 0
c p weight -41 0.467826 0
